Set parameter TokenServer to value "hpc-licenses.hpcc.usc.edu"
Set parameter TimeLimit to value 3600
Gurobi Optimizer version 9.5.1 build v9.5.1rc2 (linux64)
Thread count: 20 physical cores, 20 logical processors, using up to 20 threads
Optimize a model with 6007 rows, 4529 columns and 24534 nonzeros
Model fingerprint: 0x978151f9
Variable types: 4506 continuous, 23 integer (23 binary)
Coefficient statistics:
  Matrix range     [1e+00, 1e+00]
  Objective range  [1e-03, 1e+00]
  Bounds range     [1e+00, 1e+00]
  RHS range        [1e+00, 1e+02]
Found heuristic solution: objective 220.1159703
Presolve removed 1520 rows and 1515 columns
Presolve time: 0.06s
Presolved: 4487 rows, 3014 columns, 21975 nonzeros
Variable types: 2994 continuous, 20 integer (20 binary)

Root relaxation: objective 2.331651e+02, 3307 iterations, 0.14 seconds (0.16 work units)

    Nodes    |    Current Node    |     Objective Bounds      |     Work
 Expl Unexpl |  Obj  Depth IntInf | Incumbent    BestBd   Gap | It/Node Time

     0     0  233.16512    0    2  220.11597  233.16512  5.93%     -    0s
H    0     0                     232.5120414  233.16512  0.28%     -    0s
     0     0  233.12463    0    4  232.51204  233.12463  0.26%     -    0s
     0     0  233.12463    0    2  232.51204  233.12463  0.26%     -    0s
     0     0  233.12167    0    4  232.51204  233.12167  0.26%     -    1s
     0     0  232.94556    0    4  232.51204  232.94556  0.19%     -    1s
     0     0  232.51204    0    5  232.51204  232.51204  0.00%     -    2s

Cutting planes:
  Gomory: 2
  MIR: 622
  RLT: 1

Explored 1 nodes (5379 simplex iterations) in 2.03 seconds (0.59 work units)
Thread count was 20 (of 20 available processors)

Solution count 2: 232.512 220.116 

Optimal solution found (tolerance 1.00e-04)
Best objective 2.325120414122e+02, best bound 2.325120414122e+02, gap 0.0000%



#########node  1
V1.7
#########node  2
0.1118421052631579,0.8881578947368421
#########node  3
1.0,0.0


Total Solving Time 2.4860448837280273
obj value 232.5120414122381
Policy Regret train (Sum) 4.147362670960024
Best Treatment Found train (%) 70.19999999999999
treatment classification acc train (%) 50.6
Policy Regret test (Sum) 63.74597884426457
Best Treatment Found test (%) 73.06
treatment classification acc test (%) 50.339999999999996
